(declare-const havoc Int)
(declare-const |K:52:53| Int)
(declare-const |glob2_p_off':47:54| Int)
(assert (and (< (- havoc) 0) (< (+ havoc -2147483647) 0)
               (or (not (<= (- |K:52:53|) 0))
                     (= (+ |glob2_p_off':47:54| (- |K:52:53|)) 0))
               (or (and (= |K:52:53| 0) (= (- |glob2_p_off':47:54|) 0))
                     (and (<= (+ (- |K:52:53|) 1) 0) (<= (- havoc) 0)
                            (<= (+ (- havoc) 1) 0)
                            (<= (+ (- |glob2_p_off':47:54|) 1) 0)
                            (<= (+ |glob2_p_off':47:54| (- havoc) -1) 0)
                            (<= (+ (- havoc) 1) 0))) (<= (- |K:52:53|) 0)
               (< (- havoc) 0) (<= (- |glob2_p_off':47:54|) 0)
               (< (- havoc) 0) (<= (+ |glob2_p_off':47:54| (- havoc)) 0)
               (<= (- |glob2_p_off':47:54|) 0)
               (not (< (+ |glob2_p_off':47:54| (- havoc) -1) 0))))
(check-sat)
